param n := 60;
param c := 10000
param : V : p w :=
   0	  20	 494
   1	  88	 250
   2	  41	 256
   3	  71	 429
   4	  85	 266
   5	  66	 305
   6	  55	 378
   7	  18	 268
   8	  31	 354
   9	  59	 482
  10	  41	 251
  11	  50	 267
  12	  87	 464
  13	  77	 259
  14	  75	 277
  15	  45	 398
  16	  92	 276
  17	  61	 326
  18	  80	 390
  19	  84	 260
  20	  12	 350
  21	  14	 482
  22	  75	 251
  23	  10	 267
  24	  89	 430
  25	  95	 262
  26	  20	 308
  27	   9	 400
  28	  32	 261
  29	  76	 339
  30	  18	 498
  31	  72	 250
  32	   1	 252
  33	  14	 362
  34	  39	 288
  35	  99	 350
  36	  49	 498
  37	  31	 250
  38	  69	 252
  39	   3	 459
  40	   7	 260
  41	  21	 281
  42	  23	 401
  43	   7	 271
  44	  80	 328
  45	  16	 367
  46	  62	 288
  47	  10	 345
  48	  78	 352
  49	  12	 279
  50	  53	 369
  51	  77	 476
  52	  95	 261
  53	  60	 263
  54	  79	 479
  55	  46	 254
  56	   7	 267
  57	   1	 436
  58	  82	 280
  59	  38	 284
;

set E :=
   0	   1
   0	   3
   0	   5
   0	   6
   0	   8
   0	   9
   0	  10
   0	  12
   0	  14
   0	  15
   0	  16
   0	  19
   0	  20
   0	  22
   0	  23
   0	  24
   0	  28
   0	  32
   0	  34
   0	  35
   0	  37
   0	  39
   0	  43
   0	  47
   0	  49
   0	  51
   0	  52
   0	  53
   0	  54
   0	  55
   1	   8
   1	   9
   1	  11
   1	  13
   1	  15
   1	  18
   1	  19
   1	  22
   1	  23
   1	  27
   1	  29
   1	  31
   1	  32
   1	  33
   1	  37
   1	  38
   1	  43
   1	  44
   1	  51
   1	  53
   1	  54
   1	  57
   2	   3
   2	   5
   2	   9
   2	  11
   2	  13
   2	  15
   2	  16
   2	  23
   2	  25
   2	  26
   2	  27
   2	  28
   2	  29
   2	  30
   2	  32
   2	  35
   2	  36
   2	  37
   2	  38
   2	  41
   2	  43
   2	  44
   2	  45
   2	  48
   2	  50
   2	  52
   2	  53
   2	  58
   2	  59
   3	   4
   3	   6
   3	   7
   3	   8
   3	   9
   3	  12
   3	  15
   3	  16
   3	  17
   3	  19
   3	  26
   3	  28
   3	  29
   3	  34
   3	  36
   3	  38
   3	  40
   3	  41
   3	  42
   3	  44
   3	  47
   3	  49
   3	  50
   3	  52
   3	  54
   3	  55
   3	  56
   3	  59
   4	   5
   4	   7
   4	  12
   4	  17
   4	  19
   4	  20
   4	  22
   4	  24
   4	  26
   4	  28
   4	  33
   4	  35
   4	  36
   4	  38
   4	  40
   4	  41
   4	  42
   4	  43
   4	  44
   4	  45
   4	  46
   4	  48
   4	  49
   4	  51
   4	  53
   4	  54
   4	  55
   4	  56
   4	  57
   4	  58
   5	   6
   5	   7
   5	   9
   5	  10
   5	  11
   5	  15
   5	  24
   5	  25
   5	  29
   5	  34
   5	  36
   5	  37
   5	  38
   5	  40
   5	  42
   5	  44
   5	  46
   5	  48
   5	  54
   5	  55
   5	  59
   6	   9
   6	  10
   6	  14
   6	  15
   6	  17
   6	  21
   6	  26
   6	  27
   6	  30
   6	  32
   6	  33
   6	  35
   6	  36
   6	  37
   6	  38
   6	  42
   6	  44
   6	  45
   6	  48
   6	  55
   6	  56
   6	  57
   6	  58
   7	   8
   7	   9
   7	  10
   7	  17
   7	  26
   7	  27
   7	  28
   7	  29
   7	  34
   7	  36
   7	  37
   7	  38
   7	  39
   7	  43
   7	  50
   7	  53
   7	  57
   7	  59
   8	   9
   8	  10
   8	  12
   8	  13
   8	  15
   8	  18
   8	  20
   8	  23
   8	  24
   8	  25
   8	  26
   8	  31
   8	  33
   8	  34
   8	  35
   8	  36
   8	  41
   8	  48
   8	  49
   8	  50
   8	  53
   8	  57
   9	  13
   9	  15
   9	  18
   9	  19
   9	  26
   9	  28
   9	  30
   9	  31
   9	  35
   9	  40
   9	  42
   9	  43
   9	  45
   9	  48
   9	  49
   9	  50
   9	  55
   9	  56
   9	  57
   9	  58
  10	  11
  10	  17
  10	  20
  10	  21
  10	  23
  10	  24
  10	  30
  10	  32
  10	  33
  10	  34
  10	  37
  10	  40
  10	  44
  10	  46
  10	  47
  10	  57
  10	  58
  11	  12
  11	  13
  11	  14
  11	  16
  11	  19
  11	  20
  11	  21
  11	  22
  11	  28
  11	  29
  11	  32
  11	  34
  11	  35
  11	  36
  11	  37
  11	  38
  11	  43
  11	  44
  11	  45
  11	  48
  11	  49
  11	  50
  11	  53
  11	  55
  11	  58
  11	  59
  12	  14
  12	  15
  12	  16
  12	  18
  12	  20
  12	  22
  12	  24
  12	  25
  12	  26
  12	  28
  12	  30
  12	  31
  12	  32
  12	  33
  12	  39
  12	  42
  12	  44
  12	  47
  12	  48
  12	  49
  12	  53
  12	  55
  12	  58
  12	  59
  13	  14
  13	  15
  13	  16
  13	  17
  13	  20
  13	  24
  13	  26
  13	  28
  13	  30
  13	  33
  13	  35
  13	  36
  13	  37
  13	  39
  13	  42
  13	  44
  13	  45
  13	  47
  13	  49
  13	  54
  14	  20
  14	  23
  14	  25
  14	  26
  14	  27
  14	  33
  14	  37
  14	  43
  14	  46
  14	  53
  14	  55
  14	  56
  15	  17
  15	  22
  15	  24
  15	  27
  15	  29
  15	  34
  15	  36
  15	  41
  15	  44
  15	  50
  15	  51
  15	  54
  15	  56
  15	  59
  16	  17
  16	  18
  16	  25
  16	  26
  16	  29
  16	  36
  16	  45
  16	  46
  16	  49
  16	  50
  16	  52
  16	  53
  16	  55
  17	  18
  17	  19
  17	  20
  17	  21
  17	  22
  17	  23
  17	  24
  17	  28
  17	  33
  17	  35
  17	  39
  17	  40
  17	  43
  17	  44
  17	  51
  17	  54
  17	  56
  17	  57
  17	  58
  18	  23
  18	  26
  18	  27
  18	  29
  18	  31
  18	  32
  18	  33
  18	  36
  18	  38
  18	  41
  18	  47
  18	  48
  18	  49
  18	  51
  18	  54
  18	  55
  18	  59
  19	  20
  19	  24
  19	  27
  19	  40
  19	  41
  19	  43
  19	  48
  19	  49
  19	  55
  19	  57
  19	  58
  20	  22
  20	  24
  20	  25
  20	  29
  20	  32
  20	  44
  20	  45
  20	  46
  21	  23
  21	  26
  21	  32
  21	  37
  21	  39
  21	  40
  21	  45
  21	  55
  21	  56
  21	  57
  21	  58
  21	  59
  22	  24
  22	  28
  22	  33
  22	  41
  22	  46
  22	  49
  22	  50
  22	  51
  22	  52
  22	  53
  22	  55
  23	  25
  23	  26
  23	  28
  23	  31
  23	  34
  23	  35
  23	  40
  23	  43
  23	  46
  23	  51
  23	  52
  23	  55
  23	  56
  23	  58
  24	  25
  24	  26
  24	  28
  24	  32
  24	  34
  24	  35
  24	  38
  24	  40
  24	  42
  24	  47
  24	  49
  24	  51
  24	  55
  24	  57
  25	  28
  25	  31
  25	  34
  25	  36
  25	  40
  25	  44
  25	  45
  25	  46
  25	  48
  25	  52
  25	  57
  25	  58
  26	  28
  26	  32
  26	  33
  26	  35
  26	  40
  26	  42
  26	  43
  26	  44
  26	  47
  26	  48
  26	  50
  26	  53
  26	  59
  27	  28
  27	  29
  27	  30
  27	  32
  27	  33
  27	  36
  27	  40
  27	  43
  27	  44
  27	  46
  27	  47
  27	  50
  27	  52
  27	  53
  27	  56
  27	  57
  27	  58
  28	  29
  28	  30
  28	  31
  28	  32
  28	  34
  28	  35
  28	  36
  28	  39
  28	  43
  28	  44
  28	  47
  28	  49
  28	  50
  28	  51
  28	  53
  28	  54
  28	  56
  28	  57
  29	  36
  29	  38
  29	  39
  29	  40
  29	  44
  29	  48
  29	  50
  29	  51
  29	  53
  29	  57
  29	  59
  30	  36
  30	  37
  30	  39
  30	  43
  30	  49
  30	  50
  30	  54
  30	  59
  31	  32
  31	  33
  31	  34
  31	  40
  31	  42
  31	  44
  31	  46
  31	  47
  31	  48
  31	  49
  31	  52
  31	  53
  31	  56
  31	  57
  31	  58
  31	  59
  32	  33
  32	  37
  32	  41
  32	  45
  32	  50
  32	  52
  32	  54
  32	  57
  32	  58
  33	  34
  33	  38
  33	  39
  33	  40
  33	  47
  33	  49
  33	  50
  33	  53
  33	  57
  33	  58
  33	  59
  34	  41
  34	  44
  34	  45
  34	  46
  34	  52
  34	  57
  34	  59
  35	  36
  35	  37
  35	  40
  35	  41
  35	  43
  35	  44
  35	  47
  35	  50
  35	  53
  35	  58
  35	  59
  36	  45
  36	  46
  36	  48
  36	  49
  36	  50
  36	  53
  36	  54
  36	  55
  36	  59
  37	  38
  37	  42
  37	  44
  37	  45
  37	  50
  37	  54
  38	  40
  38	  46
  38	  47
  38	  49
  38	  50
  38	  52
  38	  53
  38	  57
  38	  58
  38	  59
  39	  41
  39	  44
  39	  48
  39	  52
  39	  53
  39	  55
  40	  42
  40	  43
  40	  44
  40	  46
  40	  49
  40	  50
  40	  53
  40	  54
  40	  55
  40	  57
  40	  59
  41	  42
  41	  44
  41	  45
  41	  46
  41	  50
  41	  51
  41	  52
  41	  54
  41	  56
  41	  59
  42	  45
  42	  52
  42	  56
  42	  59
  43	  45
  43	  46
  43	  48
  43	  52
  43	  55
  43	  56
  44	  47
  44	  48
  44	  49
  44	  52
  44	  53
  44	  56
  44	  59
  45	  46
  45	  49
  45	  51
  45	  54
  45	  58
  46	  50
  46	  52
  46	  54
  46	  55
  46	  56
  47	  48
  47	  51
  47	  57
  48	  49
  48	  53
  48	  54
  48	  55
  48	  56
  48	  57
  49	  51
  49	  52
  49	  55
  49	  58
  50	  51
  50	  57
  50	  59
  51	  54
  51	  57
  51	  58
  51	  59
  52	  53
  52	  54
  52	  57
  52	  59
  53	  54
  53	  56
  53	  58
  53	  59
  54	  58
  55	  56
  55	  58
  56	  59
  58	  59
;
